Route #1: 27 28 12 26 40 58 53
Route #2: 80 24 29 68 77 76 50 1 69
Route #3: 3 79 33 81 9 51
Route #4: 71 65 35 34 78 54 55 25 73 21
Route #5: 72 74 75 23 56 4
Route #6: 39 67 22 41 13
Route #7: 89 6 94 95 97 87 2
Route #8: 57 15 43 42 100 37 98 92 59 99
Route #9: 60 83 5 84 17 45 46 8 82
Route #10: 64 49 36 47 48 7
Route #11: 88 31 70 30 20 66
Route #12: 62 10 32 90 63 11 19 18
Route #13: 52 61 85 93 96
Route #14: 91 44 14 38 86 16
Cost 1231
